NAME : amtsp
TYPE : ATSP
DIMENSION : 6
EDGE_WEIGHT_TYPE : EXPLICIT
EDGE_WEIGHT_FORMAT : FULL_MATRIX
EDGE_WEIGHT_SECTION
0 50562 202671 204449 102297 204493 
0 0 323 1222 886 1532 
0 323 0 920 1525 1285 
0 1222 920 0 596 349 
0 886 1525 596 0 247 
0 1532 1285 349 247 0 
